[TITLE]
;;Project: SIH Urban Flood Nowcasting Pilot Model

[OPTIONS]
FLOW_UNITS           CMS
INFILTRATION         HORTON
;; EPA SWMM 5.2 keyword for dynamic-wave routing (not DYNAMICWAVE).
FLOW_ROUTING         DYNWAVE
START_DATE           11/28/2015
START_TIME           00:00:00
REPORT_START_DATE    11/28/2015
REPORT_START_TIME    00:00:00
END_DATE             12/04/2015
END_TIME             23:30:00
REPORT_STEP          00:05:00
WET_STEP             00:05:00
DRY_STEP             01:00:00
ROUTING_STEP         00:00:15
ALLOW_PONDING        YES

[RAINGAGES]
;;Name           Format    Interval SCF      Source
RG1              INTENSITY 0:30     1.0      TIMESERIES TS_RAIN

[SUBCATCHMENTS]
;;Name           Gage     Out Node   Area     %Imperv  Width    Slope    CurbLen 
S1               RG1      J1         5.0      75.0     200      0.5      0       

[SUBAREAS]
;;Subcatchment   N-Imperv   N-Perv     S-Imperv   S-Perv     %Zero   RouteTo  %Routed
S1               0.012      0.1        1.5        5.0        25      OUTLET   100

[INFILTRATION]
;;Subcatchment   MaxRate    MinRate    Decay      DryTime    MaxInfil
S1               75.0       10.0       4.0        7          0       

[JUNCTIONS]
;;Name           Elevation  MaxDepth   InitDepth  SurDepth   Aponded 
J1               10.0       2.0        0.0        0.0        100.0
J2               8.5        2.0        0.0        0.0        100.0

[CONDUITS]
;;Name           From Node  To Node    Length     Roughness  InOffset   OutOffset  InitFlow   MaxFlow 
C1               J1         J2         300        0.013      0          0          0          0       
C2               J2         OUT1       150        0.013      0          0          0          0       

[XSECTIONS]
;;Link           Shape      Geom1      Geom2      Geom3      Geom4      Barrels
C1               CIRCULAR   1.2        0          0          0          1
C2               CIRCULAR   1.2        0          0          0          1

[OUTFALLS]
;;Name           Elevation  Type       Stage Data Gated
OUT1             7.0        FREE                  NO

[TIMESERIES]
TS_RAIN  11/28/2015  00:00  0.0
TS_RAIN  11/28/2015  00:30  0.0
TS_RAIN  11/28/2015  01:00  0.0
TS_RAIN  11/28/2015  01:30  0.0
TS_RAIN  11/28/2015  02:00  0.0
TS_RAIN  11/28/2015  02:30  0.0
TS_RAIN  11/28/2015  03:00  0.0
TS_RAIN  11/28/2015  03:30  0.0
TS_RAIN  11/28/2015  04:00  0.0
TS_RAIN  11/28/2015  04:30  0.0
TS_RAIN  11/28/2015  05:00  0.0
TS_RAIN  11/28/2015  05:30  0.0
TS_RAIN  11/28/2015  06:00  0.0
TS_RAIN  11/28/2015  06:30  0.0
TS_RAIN  11/28/2015  07:00  0.0
TS_RAIN  11/28/2015  07:30  0.0
TS_RAIN  11/28/2015  08:00  0.0
TS_RAIN  11/28/2015  08:30  0.0
TS_RAIN  11/28/2015  09:00  0.0
TS_RAIN  11/28/2015  09:30  0.02222222
TS_RAIN  11/28/2015  10:00  0.0
TS_RAIN  11/28/2015  10:30  0.0
TS_RAIN  11/28/2015  11:00  0.0
TS_RAIN  11/28/2015  11:30  0.0055555557
TS_RAIN  11/28/2015  12:00  0.0033333332
TS_RAIN  11/28/2015  12:30  0.0
TS_RAIN  11/28/2015  13:00  0.0
TS_RAIN  11/28/2015  13:30  0.02222222
TS_RAIN  11/28/2015  14:00  0.040555555
TS_RAIN  11/28/2015  14:30  0.0011111111
TS_RAIN  11/28/2015  15:00  0.051666666
TS_RAIN  11/28/2015  15:30  0.031111112
TS_RAIN  11/28/2015  16:00  0.041666668
TS_RAIN  11/28/2015  16:30  0.028333332
TS_RAIN  11/28/2015  17:00  0.118888885
TS_RAIN  11/28/2015  17:30  0.10999999
TS_RAIN  11/28/2015  18:00  0.071666665
TS_RAIN  11/28/2015  18:30  0.16499999
TS_RAIN  11/28/2015  19:00  0.3744444
TS_RAIN  11/28/2015  19:30  0.65166664
TS_RAIN  11/28/2015  20:00  0.25055555
TS_RAIN  11/28/2015  20:30  0.165
TS_RAIN  11/28/2015  21:00  0.33444443
TS_RAIN  11/28/2015  21:30  0.83611107
TS_RAIN  11/28/2015  22:00  1.0649999
TS_RAIN  11/28/2015  22:30  1.1544443
TS_RAIN  11/28/2015  23:00  1.1144445
TS_RAIN  11/28/2015  23:30  0.84111106
TS_RAIN  11/29/2015  00:00  0.82722217
TS_RAIN  11/29/2015  00:30  0.5255555
TS_RAIN  11/29/2015  01:00  0.11444444
TS_RAIN  11/29/2015  01:30  0.10999999
TS_RAIN  11/29/2015  02:00  0.12444445
TS_RAIN  11/29/2015  02:30  0.12888888
TS_RAIN  11/29/2015  03:00  0.06055555
TS_RAIN  11/29/2015  03:30  0.082777776
TS_RAIN  11/29/2015  04:00  0.04222222
TS_RAIN  11/29/2015  04:30  0.028888889
TS_RAIN  11/29/2015  05:00  0.0
TS_RAIN  11/29/2015  05:30  0.0
TS_RAIN  11/29/2015  06:00  0.0
TS_RAIN  11/29/2015  06:30  0.020555554
TS_RAIN  11/29/2015  07:00  0.0
TS_RAIN  11/29/2015  07:30  0.13555557
TS_RAIN  11/29/2015  08:00  0.039444443
TS_RAIN  11/29/2015  08:30  0.095
TS_RAIN  11/29/2015  09:00  0.1261111
TS_RAIN  11/29/2015  09:30  0.45500004
TS_RAIN  11/29/2015  10:00  0.5522222
TS_RAIN  11/29/2015  10:30  0.25166667
TS_RAIN  11/29/2015  11:00  0.1611111
TS_RAIN  11/29/2015  11:30  0.12444445
TS_RAIN  11/29/2015  12:00  0.09555555
TS_RAIN  11/29/2015  12:30  0.15444444
TS_RAIN  11/29/2015  13:00  0.2861111
TS_RAIN  11/29/2015  13:30  0.3238889
TS_RAIN  11/29/2015  14:00  0.25944442
TS_RAIN  11/29/2015  14:30  0.33222222
TS_RAIN  11/29/2015  15:00  0.18444444
TS_RAIN  11/29/2015  15:30  0.06666666
TS_RAIN  11/29/2015  16:00  0.03833333
TS_RAIN  11/29/2015  16:30  0.042777777
TS_RAIN  11/29/2015  17:00  0.00055555557
TS_RAIN  11/29/2015  17:30  0.02111111
TS_RAIN  11/29/2015  18:00  0.086666666
TS_RAIN  11/29/2015  18:30  0.05833333
TS_RAIN  11/29/2015  19:00  0.06888888
TS_RAIN  11/29/2015  19:30  0.4161111
TS_RAIN  11/29/2015  20:00  0.81222224
TS_RAIN  11/29/2015  20:30  1.1194444
TS_RAIN  11/29/2015  21:00  1.7550001
TS_RAIN  11/29/2015  21:30  2.6216667
TS_RAIN  11/29/2015  22:00  2.2577775
TS_RAIN  11/29/2015  22:30  1.923333
TS_RAIN  11/29/2015  23:00  3.3527777
TS_RAIN  11/29/2015  23:30  5.573889
TS_RAIN  11/30/2015  00:00  7.133333
TS_RAIN  11/30/2015  00:30  7.0627775
TS_RAIN  11/30/2015  01:00  6.295555
TS_RAIN  11/30/2015  01:30  4.9950004
TS_RAIN  11/30/2015  02:00  3.3261108
TS_RAIN  11/30/2015  02:30  1.4894443
TS_RAIN  11/30/2015  03:00  0.97999996
TS_RAIN  11/30/2015  03:30  0.31166664
TS_RAIN  11/30/2015  04:00  0.0
TS_RAIN  11/30/2015  04:30  0.0
TS_RAIN  11/30/2015  05:00  0.04222222
TS_RAIN  11/30/2015  05:30  0.4894444
TS_RAIN  11/30/2015  06:00  0.19166666
TS_RAIN  11/30/2015  06:30  0.16
TS_RAIN  11/30/2015  07:00  0.0
TS_RAIN  11/30/2015  07:30  0.6922222
TS_RAIN  11/30/2015  08:00  1.3177779
TS_RAIN  11/30/2015  08:30  2.4094446
TS_RAIN  11/30/2015  09:00  2.311111
TS_RAIN  11/30/2015  09:30  2.76
TS_RAIN  11/30/2015  10:00  2.8066664
TS_RAIN  11/30/2015  10:30  1.8888888
TS_RAIN  11/30/2015  11:00  1.395
TS_RAIN  11/30/2015  11:30  0.9855555
TS_RAIN  11/30/2015  12:00  0.86611104
TS_RAIN  11/30/2015  12:30  0.415
TS_RAIN  11/30/2015  13:00  0.7094444
TS_RAIN  11/30/2015  13:30  0.6005556
TS_RAIN  11/30/2015  14:00  0.8861111
TS_RAIN  11/30/2015  14:30  1.5311111
TS_RAIN  11/30/2015  15:00  2.2088885
TS_RAIN  11/30/2015  15:30  3.12
TS_RAIN  11/30/2015  16:00  3.1188889
TS_RAIN  11/30/2015  16:30  3.0583334
TS_RAIN  11/30/2015  17:00  1.8605554
TS_RAIN  11/30/2015  17:30  2.4194443
TS_RAIN  11/30/2015  18:00  2.765
TS_RAIN  11/30/2015  18:30  2.9416668
TS_RAIN  11/30/2015  19:00  1.8677777
TS_RAIN  11/30/2015  19:30  1.6949999
TS_RAIN  11/30/2015  20:00  1.8766665
TS_RAIN  11/30/2015  20:30  1.4983333
TS_RAIN  11/30/2015  21:00  0.9255555
TS_RAIN  11/30/2015  21:30  1.0572221
TS_RAIN  11/30/2015  22:00  1.2561111
TS_RAIN  11/30/2015  22:30  1.518889
TS_RAIN  11/30/2015  23:00  1.5033332
TS_RAIN  11/30/2015  23:30  1.5288891
TS_RAIN  12/01/2015  00:00  2.4377778
TS_RAIN  12/01/2015  00:30  3.3594444
TS_RAIN  12/01/2015  01:30  3.73
TS_RAIN  12/01/2015  02:00  4.8811107
TS_RAIN  12/01/2015  02:30  5.6416664
TS_RAIN  12/01/2015  03:00  11.42722
TS_RAIN  12/01/2015  03:30  15.557776
TS_RAIN  12/01/2015  04:00  16.51
TS_RAIN  12/01/2015  04:30  17.966112
TS_RAIN  12/01/2015  05:00  18.388334
TS_RAIN  12/01/2015  05:30  16.627777
TS_RAIN  12/01/2015  06:00  14.102222
TS_RAIN  12/01/2015  06:30  13.007222
TS_RAIN  12/01/2015  07:00  13.189443
TS_RAIN  12/01/2015  07:30  13.533333
TS_RAIN  12/01/2015  08:00  16.01222
TS_RAIN  12/01/2015  08:30  17.366665
TS_RAIN  12/01/2015  09:00  14.602777
TS_RAIN  12/01/2015  09:30  8.991666
TS_RAIN  12/01/2015  10:00  13.673888
TS_RAIN  12/01/2015  10:30  8.680555
TS_RAIN  12/01/2015  11:00  7.1633325
TS_RAIN  12/01/2015  11:30  10.585
TS_RAIN  12/01/2015  12:00  16.461111
TS_RAIN  12/01/2015  12:30  19.967777
TS_RAIN  12/01/2015  13:00  23.997221
TS_RAIN  12/01/2015  13:30  24.735556
TS_RAIN  12/01/2015  14:00  21.76611
TS_RAIN  12/01/2015  14:30  19.714445
TS_RAIN  12/01/2015  15:00  15.386666
TS_RAIN  12/01/2015  15:30  14.345001
TS_RAIN  12/01/2015  16:00  12.229444
TS_RAIN  12/01/2015  16:30  12.186111
TS_RAIN  12/01/2015  17:00  10.032778
TS_RAIN  12/01/2015  17:30  13.407778
TS_RAIN  12/01/2015  18:00  10.757222
TS_RAIN  12/01/2015  18:30  10.866112
TS_RAIN  12/01/2015  19:00  8.134999
TS_RAIN  12/01/2015  19:30  6.2422223
TS_RAIN  12/01/2015  20:00  6.7627773
TS_RAIN  12/01/2015  20:30  6.002222
TS_RAIN  12/01/2015  21:00  6.955556
TS_RAIN  12/01/2015  21:30  6.045555
TS_RAIN  12/01/2015  22:00  6.9177775
TS_RAIN  12/01/2015  22:30  6.6783333
TS_RAIN  12/01/2015  23:00  6.7099996
TS_RAIN  12/01/2015  23:30  6.787778
TS_RAIN  12/02/2015  00:00  6.3827777
TS_RAIN  12/02/2015  00:30  6.144445
TS_RAIN  12/02/2015  01:00  5.542777
TS_RAIN  12/02/2015  01:30  5.336111
TS_RAIN  12/02/2015  02:00  4.466666
TS_RAIN  12/02/2015  02:30  3.8627777
TS_RAIN  12/02/2015  03:00  3.271111
TS_RAIN  12/02/2015  03:30  2.1966665
TS_RAIN  12/02/2015  04:00  1.438889
TS_RAIN  12/02/2015  04:30  0.8605555
TS_RAIN  12/02/2015  05:00  0.33333334
TS_RAIN  12/02/2015  05:30  1.0505556
TS_RAIN  12/02/2015  06:00  1.4449999
TS_RAIN  12/02/2015  06:30  2.6138887
TS_RAIN  12/02/2015  07:00  2.2394445
TS_RAIN  12/02/2015  07:30  2.055
TS_RAIN  12/02/2015  08:00  2.2261114
TS_RAIN  12/02/2015  08:30  1.9022222
TS_RAIN  12/02/2015  09:00  1.2683332
TS_RAIN  12/02/2015  09:30  1.0216668
TS_RAIN  12/02/2015  10:00  0.74333334
TS_RAIN  12/02/2015  10:30  0.59055555
TS_RAIN  12/02/2015  11:00  0.19111112
TS_RAIN  12/02/2015  11:30  0.37499997
TS_RAIN  12/02/2015  12:00  1.0422223
TS_RAIN  12/02/2015  12:30  1.3244444
TS_RAIN  12/02/2015  13:00  1.6544443
TS_RAIN  12/02/2015  13:30  0.93611115
TS_RAIN  12/02/2015  14:00  0.77500004
TS_RAIN  12/02/2015  14:30  1.0816667
TS_RAIN  12/02/2015  15:00  0.3222222
TS_RAIN  12/02/2015  15:30  0.88555557
TS_RAIN  12/02/2015  16:00  0.7738888
TS_RAIN  12/02/2015  16:30  0.8088889
TS_RAIN  12/02/2015  17:00  0.53
TS_RAIN  12/02/2015  17:30  0.31888887
TS_RAIN  12/02/2015  18:00  0.19888887
TS_RAIN  12/02/2015  18:30  0.25888887
TS_RAIN  12/02/2015  19:00  0.4544444
TS_RAIN  12/02/2015  19:30  0.86444443
TS_RAIN  12/02/2015  20:00  0.9177778
TS_RAIN  12/02/2015  20:30  0.8955555
TS_RAIN  12/02/2015  21:00  0.43111113
TS_RAIN  12/02/2015  21:30  0.4194444
TS_RAIN  12/02/2015  22:00  0.3111111
TS_RAIN  12/02/2015  22:30  0.15888888
TS_RAIN  12/02/2015  23:00  0.32277778
TS_RAIN  12/02/2015  23:30  0.26888886
TS_RAIN  12/03/2015  00:00  0.24833332
TS_RAIN  12/03/2015  00:30  0.27555555
TS_RAIN  12/03/2015  01:00  0.36388886
TS_RAIN  12/03/2015  01:30  0.3072222
TS_RAIN  12/03/2015  02:00  0.33166668
TS_RAIN  12/03/2015  02:30  0.12611109
TS_RAIN  12/03/2015  03:00  0.2272222
TS_RAIN  12/03/2015  03:30  0.12722223
TS_RAIN  12/03/2015  04:00  0.12277778
TS_RAIN  12/03/2015  04:30  0.105
TS_RAIN  12/03/2015  05:00  0.195
TS_RAIN  12/03/2015  05:30  0.063888885
TS_RAIN  12/03/2015  06:00  0.16277778
TS_RAIN  12/03/2015  06:30  0.22111112
TS_RAIN  12/03/2015  07:00  0.3411111
TS_RAIN  12/03/2015  07:30  0.107777774
TS_RAIN  12/03/2015  08:00  0.058888886
TS_RAIN  12/03/2015  08:30  0.14444445
TS_RAIN  12/03/2015  09:00  0.265
TS_RAIN  12/03/2015  09:30  0.17999998
TS_RAIN  12/03/2015  10:00  0.12333332
TS_RAIN  12/03/2015  10:30  0.40166667
TS_RAIN  12/03/2015  11:00  0.37166667
TS_RAIN  12/03/2015  11:30  0.31166667
TS_RAIN  12/03/2015  12:00  0.26055554
TS_RAIN  12/03/2015  12:30  0.2361111
TS_RAIN  12/03/2015  13:00  0.22611111
TS_RAIN  12/03/2015  13:30  0.24111107
TS_RAIN  12/03/2015  14:00  0.2638889
TS_RAIN  12/03/2015  14:30  0.17611113
TS_RAIN  12/03/2015  15:00  0.095
TS_RAIN  12/03/2015  15:30  0.04388889
TS_RAIN  12/03/2015  16:00  0.085
TS_RAIN  12/03/2015  16:30  0.111111104
TS_RAIN  12/03/2015  17:00  0.06944445
TS_RAIN  12/03/2015  17:30  0.016111111
TS_RAIN  12/03/2015  18:00  0.007222222
TS_RAIN  12/03/2015  18:30  0.010555555
TS_RAIN  12/03/2015  19:00  0.045
TS_RAIN  12/03/2015  19:30  0.18444444
TS_RAIN  12/03/2015  20:00  0.15722221
TS_RAIN  12/03/2015  20:30  0.16777778
TS_RAIN  12/03/2015  21:00  0.033333335
TS_RAIN  12/03/2015  21:30  0.0
TS_RAIN  12/03/2015  22:00  0.0
TS_RAIN  12/03/2015  22:30  0.0
TS_RAIN  12/03/2015  23:00  0.0
TS_RAIN  12/03/2015  23:30  0.0
TS_RAIN  12/04/2015  00:00  0.027777778
TS_RAIN  12/04/2015  00:30  0.049444444
TS_RAIN  12/04/2015  01:00  0.071666665
TS_RAIN  12/04/2015  01:30  0.06277778
TS_RAIN  12/04/2015  02:00  0.0044444446
TS_RAIN  12/04/2015  02:30  0.0
TS_RAIN  12/04/2015  03:00  0.0
TS_RAIN  12/04/2015  03:30  0.046666667
TS_RAIN  12/04/2015  04:00  0.008333334
TS_RAIN  12/04/2015  04:30  0.014999999
TS_RAIN  12/04/2015  05:00  0.0
TS_RAIN  12/04/2015  05:30  0.0
TS_RAIN  12/04/2015  06:00  0.037777778
TS_RAIN  12/04/2015  06:30  0.026666665
TS_RAIN  12/04/2015  07:00  0.06555556
TS_RAIN  12/04/2015  07:30  0.075
TS_RAIN  12/04/2015  08:00  0.1211111
TS_RAIN  12/04/2015  08:30  0.29222223
TS_RAIN  12/04/2015  09:00  0.20388888
TS_RAIN  12/04/2015  09:30  0.1561111
TS_RAIN  12/04/2015  10:00  0.071666665
TS_RAIN  12/04/2015  10:30  0.09111111
TS_RAIN  12/04/2015  11:00  0.25277776
TS_RAIN  12/04/2015  11:30  0.32666668
TS_RAIN  12/04/2015  12:00  0.33999997
TS_RAIN  12/04/2015  12:30  0.18888889
TS_RAIN  12/04/2015  13:00  0.003888889
TS_RAIN  12/04/2015  13:30  0.027222222
TS_RAIN  12/04/2015  14:00  0.04
TS_RAIN  12/04/2015  14:30  0.20888889
TS_RAIN  12/04/2015  15:00  0.06611112
TS_RAIN  12/04/2015  15:30  0.11333333
TS_RAIN  12/04/2015  16:00  0.0
TS_RAIN  12/04/2015  16:30  0.0
TS_RAIN  12/04/2015  17:00  0.0
TS_RAIN  12/04/2015  17:30  0.0
TS_RAIN  12/04/2015  18:00  0.0
TS_RAIN  12/04/2015  18:30  0.0
TS_RAIN  12/04/2015  19:00  0.023333333
TS_RAIN  12/04/2015  19:30  0.056666665
TS_RAIN  12/04/2015  20:00  0.015555556
TS_RAIN  12/04/2015  20:30  0.0
TS_RAIN  12/04/2015  21:00  0.0
TS_RAIN  12/04/2015  21:30  0.0
TS_RAIN  12/04/2015  22:00  0.0
TS_RAIN  12/04/2015  22:30  0.37
TS_RAIN  12/04/2015  23:00  0.67055553
TS_RAIN  12/04/2015  23:30  0.35277775
;;Name           Date       Time       Value     

[COORDINATES]
;;Node           X-Coord          Y-Coord
J1               80.2707          13.0827
J2               80.2735          13.0850
OUT1             80.2760          13.0872

[REPORT]
INPUT            NO
CONTROLS         NO
SUBCATCHMENTS    ALL
NODES            ALL
LINKS            ALL
